c *********************************
c * Circuit generated by BenCGen
c *
c * Parity_35
c *
c * Ports with 1 gate(s): 1
c * Ports with 2 gate(s): 35
c * Total gates: 36
c *********************************
p cnf 71 141
1 38 0
-1 -38 0
1 -37 0
38 -37 0
-1 -38 37 0
1 2 -39 0
-1 2 39 0
1 -2 39 0
-1 -2 -39 0
3 4 -40 0
-3 4 40 0
3 -4 40 0
-3 -4 -40 0
5 6 -41 0
-5 6 41 0
5 -6 41 0
-5 -6 -41 0
7 8 -42 0
-7 8 42 0
7 -8 42 0
-7 -8 -42 0
9 10 -43 0
-9 10 43 0
9 -10 43 0
-9 -10 -43 0
11 12 -44 0
-11 12 44 0
11 -12 44 0
-11 -12 -44 0
13 14 -45 0
-13 14 45 0
13 -14 45 0
-13 -14 -45 0
15 16 -46 0
-15 16 46 0
15 -16 46 0
-15 -16 -46 0
17 18 -47 0
-17 18 47 0
17 -18 47 0
-17 -18 -47 0
19 20 -48 0
-19 20 48 0
19 -20 48 0
-19 -20 -48 0
21 22 -49 0
-21 22 49 0
21 -22 49 0
-21 -22 -49 0
23 24 -50 0
-23 24 50 0
23 -24 50 0
-23 -24 -50 0
25 26 -51 0
-25 26 51 0
25 -26 51 0
-25 -26 -51 0
27 28 -52 0
-27 28 52 0
27 -28 52 0
-27 -28 -52 0
29 30 -53 0
-29 30 53 0
29 -30 53 0
-29 -30 -53 0
31 32 -54 0
-31 32 54 0
31 -32 54 0
-31 -32 -54 0
33 34 -55 0
-33 34 55 0
33 -34 55 0
-33 -34 -55 0
39 40 -56 0
-39 40 56 0
39 -40 56 0
-39 -40 -56 0
41 42 -57 0
-41 42 57 0
41 -42 57 0
-41 -42 -57 0
43 44 -58 0
-43 44 58 0
43 -44 58 0
-43 -44 -58 0
45 46 -59 0
-45 46 59 0
45 -46 59 0
-45 -46 -59 0
47 48 -60 0
-47 48 60 0
47 -48 60 0
-47 -48 -60 0
49 50 -61 0
-49 50 61 0
49 -50 61 0
-49 -50 -61 0
51 52 -62 0
-51 52 62 0
51 -52 62 0
-51 -52 -62 0
53 54 -63 0
-53 54 63 0
53 -54 63 0
-53 -54 -63 0
55 35 -64 0
-55 35 64 0
55 -35 64 0
-55 -35 -64 0
56 57 -65 0
-56 57 65 0
56 -57 65 0
-56 -57 -65 0
58 59 -66 0
-58 59 66 0
58 -59 66 0
-58 -59 -66 0
60 61 -67 0
-60 61 67 0
60 -61 67 0
-60 -61 -67 0
62 63 -68 0
-62 63 68 0
62 -63 68 0
-62 -63 -68 0
65 66 -69 0
-65 66 69 0
65 -66 69 0
-65 -66 -69 0
67 68 -70 0
-67 68 70 0
67 -68 70 0
-67 -68 -70 0
69 70 -71 0
-69 70 71 0
69 -70 71 0
-69 -70 -71 0
71 64 -36 0
-71 64 36 0
71 -64 36 0
-71 -64 -36 0
